benchmarks_vrp/CMT5/fixed_c_size/CMT5_4.vrp
NAME: CMT5_4
TYPE: CVRP
COMMENT: 1291.29 - Cluster Nr.4
DIMENSION: 16
CAPACITY: 200
EDGE_WEIGHT_TYPE: EUC_2D
NODE_COORD_TYPE: TWOD_COORDS
NODE_COORD_SECTION: 
5 43 67
2 49 73
12 55 65
4 63 69
9 62 63
8 62 77
15 49 58
7 55 60
16 57 68
1 63 65
3 45 65
6 57 58
10 52 64
11 62 57
14 35 35
13 47 66
DEPOT_SECTION: 
14
-1
DEMAND_SECTION: 
14 0
3 9
8 20
11 31
7 16
9 17
13 24
5 14
15 10
1 8
6 28
4 6
12 37
16 15
10 16
2 25
EOF
