benchmarks_vrp/CMT5/fixed_c_size/CMT5_4.tour
NAME: CMT5_4 solution
TYPE: TOUR
TOUR_SECTION:
14 6 11 9 1 4 8 16 2 13 3 5 -1
14 15 10 12 7 -1
-1
EOF